c Barbasi and Albert's preferential attachment model G(n, d), whith n = 12, d = 6
c d is the min degree parameter
c
c seed id 1360866350
c
p edge 12 36
e 1 9
e 1 11
e 1 7
e 1 8
e 2 9
e 2 10
e 2 11
e 2 7
e 2 8
e 3 10
e 3 11
e 3 12
e 3 7
e 3 8
e 4 7
e 5 9
e 5 10
e 5 12
e 5 7
e 5 8
e 6 9
e 6 11
e 6 12
e 6 7
e 6 8
e 7 8
e 7 9
e 7 10
e 7 11
e 7 12
e 8 9
e 8 10
e 8 11
e 8 12
e 9 10
e 9 12
